75
0 42 57 72 64 37 55 61 14 10 
24 21 58 70 22 69 32 52 33 26 
34 68 2 48 51 40 36 35 50 59 
45 30 5 13 16 74 6 19 66 67 
1 29 12 44 65 71 41 31 27 4 
18 20 39 9 15 62 3 60 56 53 
63 73 38 17 11 7 47 49 54 25 
8 28 46 23 43 
